
Gurobi 6.5.2 (linux64) logging started Tue Sep  6 10:06:18 2016

Optimize a model with 41 rows, 153 columns and 341 nonzeros
Coefficient statistics:
  Matrix range    [1e+00, 2e+00]
  Objective range [4e+00, 1e+02]
  Bounds range    [1e+00, 1e+00]
  RHS range       [1e+00, 1e+00]
Presolve removed 13 rows and 2 columns
Presolve time: 0.00s
Presolved: 28 rows, 151 columns, 307 nonzeros
Variable types: 0 continuous, 151 integer (151 binary)
Found heuristic solution: objective 429.0000000

Root relaxation: objective 3.135000e+02, 28 iterations, 0.00 seconds

    Nodes    |    Current Node    |     Objective Bounds      |     Work
 Expl Unexpl |  Obj  Depth IntInf | Incumbent    BestBd   Gap | It/Node Time

     0     0  313.50000    0    2  429.00000  313.50000  26.9%     -    0s
     0     0  326.00000    0    7  429.00000  326.00000  24.0%     -    0s
     0     0  327.33333    0   12  429.00000  327.33333  23.7%     -    0s
     0     0  327.33333    0   12  429.00000  327.33333  23.7%     -    0s
H    0     0                     413.0000000  327.33333  20.7%     -    0s
H    0     0                     405.0000000  327.33333  19.2%     -    0s
     0     2  328.33333    0    7  405.00000  328.33333  18.9%     -    0s
*  117     0               8     381.0000000  336.00000  11.8%   2.3    0s
*  147     0               8     372.0000000  336.00000  9.68%   2.5    0s
*  209     0               6     370.0000000  336.00000  9.19%   2.6    0s
*  571     0              12     368.0000000  357.00000  2.99%   3.2    0s

Cutting planes:
  Gomory: 3
  Cover: 4
  Mod-K: 1
  Lazy constraints: 14

Explored 601 nodes (1917 simplex iterations) in 0.05 seconds
Thread count was 8 (of 8 available processors)

Optimal solution found (tolerance 1.00e-04)
Best objective 3.680000000000e+02, best bound 3.680000000000e+02, gap 0.0%
